data/solutions/recovery/wellformed/intermediate/binding/wellformed_intermediate_instance84/12.sol
Elapsed time: 0.16
Upper bound: 172173.0
Planning weighted value: 8348116985.0
C[0]=172173.0
C[1]=171319.0
C[2]=166177.0
C[3]=165688.0
C[4]=165541.0
C[5]=163588.0
C[6]=158829.0
C[7]=158640.0
C[8]=157909.0
C[9]=148503.0
C[10]=147999.0
C[11]=145331.0
C[12]=139618.0
C[13]=133603.0
C[14]=0.0
C[15]=0.0
y[0]=0
y[1]=13
y[2]=0
y[3]=4
y[4]=0
y[5]=8
y[6]=7
y[7]=12
y[8]=11
y[9]=4
y[10]=3
y[11]=1
y[12]=12
y[13]=4
y[14]=9
y[15]=0
y[16]=1
y[17]=11
y[18]=11
y[19]=11
y[20]=0
y[21]=0
y[22]=6
y[23]=0
y[24]=0
y[25]=0
y[26]=7
y[27]=8
y[28]=1
y[29]=3
y[30]=5
y[31]=12
y[32]=6
y[33]=1
y[34]=0
y[35]=1
y[36]=3
y[37]=5
y[38]=13
y[39]=8
y[40]=7
y[41]=1
y[42]=0
y[43]=0
y[44]=3
y[45]=12
y[46]=7
y[47]=6
y[48]=4
y[49]=13
y[50]=8
y[51]=1
y[52]=7
y[53]=9
y[54]=5
y[55]=0
y[56]=0
y[57]=0
y[58]=7
y[59]=1
y[60]=0
y[61]=1
y[62]=0
y[63]=0
y[64]=3
y[65]=2
y[66]=5
y[67]=0
y[68]=8
y[69]=0
y[70]=0
y[71]=0
y[72]=12
y[73]=4
y[74]=12
y[75]=0
y[76]=0
y[77]=0
y[78]=8
y[79]=1
y[80]=3
y[81]=1
y[82]=6
y[83]=0
y[84]=8
y[85]=13
y[86]=6
y[87]=13
y[88]=5
y[89]=8
y[90]=0
y[91]=5
y[92]=1
y[93]=0
y[94]=10
y[95]=6
y[96]=0
y[97]=4
y[98]=0
y[99]=0
y[100]=1
y[101]=0
y[102]=1
y[103]=0
y[104]=0
y[105]=4
y[106]=4
y[107]=0
y[108]=0
y[109]=10
y[110]=0
y[111]=6
y[112]=1
y[113]=13
y[114]=0
y[115]=13
y[116]=3
y[117]=1
y[118]=1
y[119]=7
y[120]=5
y[121]=0
y[122]=1
y[123]=0
y[124]=2
y[125]=2
y[126]=2
y[127]=12
y[128]=7
y[129]=10
y[130]=0
y[131]=6
y[132]=0
y[133]=0
y[134]=12
y[135]=1
y[136]=3
y[137]=0
y[138]=10
y[139]=2
y[140]=1
y[141]=4
y[142]=11
y[143]=0
y[144]=6
y[145]=9
y[146]=1
y[147]=11
y[148]=2
y[149]=1
y[150]=10
y[151]=12
y[152]=1
y[153]=0
y[154]=3
y[155]=3
y[156]=0
y[157]=6
y[158]=9
y[159]=0
y[160]=7
y[161]=10
y[162]=8
y[163]=9
y[164]=9
y[165]=0
y[166]=0
y[167]=2
y[168]=0
y[169]=5
y[170]=11
y[171]=0
y[172]=1
y[173]=7
y[174]=4
y[175]=8
y[176]=12
y[177]=11
y[178]=2
y[179]=9
y[180]=5
y[181]=1
y[182]=4
y[183]=9
y[184]=1
y[185]=5
y[186]=0
y[187]=9
y[188]=6
y[189]=10
y[190]=3
y[191]=0
y[192]=2
y[193]=2
y[194]=13
y[195]=11
y[196]=13
y[197]=13
y[198]=0
y[199]=0
y[200]=5
y[201]=11
y[202]=11
y[203]=9
y[204]=12
y[205]=8
y[206]=9
y[207]=8
y[208]=12
y[209]=13
y[210]=7
y[211]=10
y[212]=1
y[213]=10
