data/solutions/recovery/wellformed/intermediate/binding/wellformed_intermediate_instance84/12.log

Log started (V12.6.3.0) Fri Apr 20 20:44:02 2018

New value for default parallel thread count: 1

Problem '/tmp/tmp6LGwMG.pyomo.lp' read.
Read time = 0.08 sec. (8.05 ticks)

Problem name         : /tmp/tmp6LGwMG.pyomo.lp
Objective sense      : Minimize
Variables            :    3442  [Nneg: 1,  Binary: 3424,  General Integer: 17]
Objective nonzeros   :       1
Linear constraints   :     463  [Less: 230,  Equal: 233]
  Nonzeros           :  594627
  RHS nonzeros       :     215

Variables            : Min LB: 0.000000         Max UB: 1.000000       
Objective nonzeros   : Min   : 1.000000         Max   : 1.000000       
Linear constraints   :
  Nonzeros           : Min   : 1.000000         Max   : 19973.00       
  RHS nonzeros       : Min   : 1.000000         Max   : 1.000000       
Tried aggregator 2 times.
MIP Presolve eliminated 406 rows and 3021 columns.
Aggregator did 14 substitutions.
Reduced MIP has 43 rows, 407 columns, and 826 nonzeros.
Reduced MIP has 406 binaries, 1 generals, 0 SOSs, and 0 indicators.
Presolve time = 0.02 sec. (37.51 ticks)
Found incumbent of value 573038.000000 after 0.04 sec. (51.46 ticks)
Probing time = 0.00 sec. (0.48 ticks)
Tried aggregator 1 time.
Reduced MIP has 43 rows, 407 columns, and 826 nonzeros.
Reduced MIP has 406 binaries, 1 generals, 0 SOSs, and 0 indicators.
Presolve time = 0.00 sec. (0.72 ticks)
Probing time = 0.00 sec. (0.48 ticks)
Clique table members: 29.
MIP emphasis: balance optimality and feasibility.
MIP search method: dynamic search.
Parallel mode: none, using 1 thread.
Root relaxation solution time = 0.00 sec. (0.64 ticks)

        Nodes                                         Cuts/
   Node  Left     Objective  IInf  Best Integer    Best Bound    ItCnt     Gap

*     0+    0                       573038.0000   172173.0000            69.95%
      0     0   172173.0000     9   573038.0000   172173.0000       64   69.95%
*     0+    0                       174398.0000   172173.0000             1.28%
      0     0   172173.0000     2   174398.0000      Cuts: 11       72    1.28%
*     0+    0                       172173.0000   172173.0000             0.00%
      0     0        cutoff         172173.0000   172173.0000       72    0.00%
Elapsed time = 0.05 sec. (56.51 ticks, tree = 0.01 MB, solutions = 3)

Mixed integer rounding cuts applied:  4
Zero-half cuts applied:  1
Gomory fractional cuts applied:  5

Root node processing (before b&c):
  Real time             =    0.05 sec. (56.65 ticks)
Sequential b&c:
  Real time             =    0.00 sec. (0.00 ticks)
                          ------------
Total (root+branch&cut) =    0.05 sec. (56.65 ticks)

Solution pool: 3 solutions saved.

MIP - Integer optimal solution:  Objective =  1.7217300000e+05
Solution time =    0.05 sec.  Iterations = 72  Nodes = 0
Deterministic time = 56.66 ticks  (1154.83 ticks/sec)


Incumbent solution written to file '/tmp/tmpRJ9eO2.cplex.sol'.
